c CNF file corresponding to a (partial) station packing problem.
p cnf 4010 229
3994 3995 3996 3997 3998 3999 4000 4001 4002 4003 4004 4005 4006 4007 4008 4009 4010 0
-3994 -3995 0
-3994 -3996 0
-3994 -3997 0
-3994 -3998 0
-3994 -3999 0
-3994 -4000 0
-3994 -4001 0
-3994 -4002 0
-3994 -4003 0
-3994 -4004 0
-3994 -4005 0
-3994 -4006 0
-3994 -4007 0
-3994 -4008 0
-3994 -4009 0
-3994 -4010 0
-3995 -3996 0
-3995 -3997 0
-3995 -3998 0
-3995 -3999 0
-3995 -4000 0
-3995 -4001 0
-3995 -4002 0
-3995 -4003 0
-3995 -4004 0
-3995 -4005 0
-3995 -4006 0
-3995 -4007 0
-3995 -4008 0
-3995 -4009 0
-3995 -4010 0
-3996 -3997 0
-3996 -3998 0
-3996 -3999 0
-3996 -4000 0
-3996 -4001 0
-3996 -4002 0
-3996 -4003 0
-3996 -4004 0
-3996 -4005 0
-3996 -4006 0
-3996 -4007 0
-3996 -4008 0
-3996 -4009 0
-3996 -4010 0
-3997 -3998 0
-3997 -3999 0
-3997 -4000 0
-3997 -4001 0
-3997 -4002 0
-3997 -4003 0
-3997 -4004 0
-3997 -4005 0
-3997 -4006 0
-3997 -4007 0
-3997 -4008 0
-3997 -4009 0
-3997 -4010 0
-3998 -3999 0
-3998 -4000 0
-3998 -4001 0
-3998 -4002 0
-3998 -4003 0
-3998 -4004 0
-3998 -4005 0
-3998 -4006 0
-3998 -4007 0
-3998 -4008 0
-3998 -4009 0
-3998 -4010 0
-3999 -4000 0
-3999 -4001 0
-3999 -4002 0
-3999 -4003 0
-3999 -4004 0
-3999 -4005 0
-3999 -4006 0
-3999 -4007 0
-3999 -4008 0
-3999 -4009 0
-3999 -4010 0
-4000 -4001 0
-4000 -4002 0
-4000 -4003 0
-4000 -4004 0
-4000 -4005 0
-4000 -4006 0
-4000 -4007 0
-4000 -4008 0
-4000 -4009 0
-4000 -4010 0
-4001 -4002 0
-4001 -4003 0
-4001 -4004 0
-4001 -4005 0
-4001 -4006 0
-4001 -4007 0
-4001 -4008 0
-4001 -4009 0
-4001 -4010 0
-4002 -4003 0
-4002 -4004 0
-4002 -4005 0
-4002 -4006 0
-4002 -4007 0
-4002 -4008 0
-4002 -4009 0
-4002 -4010 0
-4003 -4004 0
-4003 -4005 0
-4003 -4006 0
-4003 -4007 0
-4003 -4008 0
-4003 -4009 0
-4003 -4010 0
-4004 -4005 0
-4004 -4006 0
-4004 -4007 0
-4004 -4008 0
-4004 -4009 0
-4004 -4010 0
-4005 -4006 0
-4005 -4007 0
-4005 -4008 0
-4005 -4009 0
-4005 -4010 0
-4006 -4007 0
-4006 -4008 0
-4006 -4009 0
-4006 -4010 0
-4007 -4008 0
-4007 -4009 0
-4007 -4010 0
-4008 -4009 0
-4008 -4010 0
-4009 -4010 0
1 2 3 4 5 6 7 8 9 10 11 12 13 14 0
-1 -2 0
-1 -3 0
-1 -4 0
-1 -5 0
-1 -6 0
-1 -7 0
-1 -8 0
-1 -9 0
-1 -10 0
-1 -11 0
-1 -12 0
-1 -13 0
-1 -14 0
-2 -3 0
-2 -4 0
-2 -5 0
-2 -6 0
-2 -7 0
-2 -8 0
-2 -9 0
-2 -10 0
-2 -11 0
-2 -12 0
-2 -13 0
-2 -14 0
-3 -4 0
-3 -5 0
-3 -6 0
-3 -7 0
-3 -8 0
-3 -9 0
-3 -10 0
-3 -11 0
-3 -12 0
-3 -13 0
-3 -14 0
-4 -5 0
-4 -6 0
-4 -7 0
-4 -8 0
-4 -9 0
-4 -10 0
-4 -11 0
-4 -12 0
-4 -13 0
-4 -14 0
-5 -6 0
-5 -7 0
-5 -8 0
-5 -9 0
-5 -10 0
-5 -11 0
-5 -12 0
-5 -13 0
-5 -14 0
-6 -7 0
-6 -8 0
-6 -9 0
-6 -10 0
-6 -11 0
-6 -12 0
-6 -13 0
-6 -14 0
-7 -8 0
-7 -9 0
-7 -10 0
-7 -11 0
-7 -12 0
-7 -13 0
-7 -14 0
-8 -9 0
-8 -10 0
-8 -11 0
-8 -12 0
-8 -13 0
-8 -14 0
-9 -10 0
-9 -11 0
-9 -12 0
-9 -13 0
-9 -14 0
-10 -11 0
-10 -12 0
-10 -13 0
-10 -14 0
-11 -12 0
-11 -13 0
-11 -14 0
-12 -13 0
-12 -14 0
-13 -14 0
